 $CONTRL ICHARG=0 MULT=1 SCFTYP=RHF RUNTYP=OPTIMIZE
  COORD=UNIQUE MAXIT=200 NZVAR=0 DFTTYP=B3LYPV1R
 $END
 $SYSTEM MWORDS=100 $END
 $STATPT NSTEP=100 HSSEND=.F. $END
 $SCF DIRSCF=.T. $END
 $BASIS GBASIS=N31 NGAUSS=6 NDFUNC=1 $END
 $DATA
Winmostar
C1
O    8.0    0.0000000000    0.0000000000    0.0000000000
O    8.0    1.3200000000    0.0000000000    0.0000000000
 $END
